50 10000

65
106
107
132
258
499
95
103
185
140
455
301
151
167
478
280
299
128
415
410
18
201
255
143
329
16
443
213
382
335
421
342
198
212
392
385
133
233
127
88
448
204
480
66
252
216
335
143
436
281
